c instance by G2
c solution = 100100000111110
c Known solution cost is 610 
p cnf 15 30
w 96 0 71 80 98 79 9 1 6 23 43 15 12 55 22
-12 14 7 0
15 1 4 0
-11 -4 -7 0
2 -13 1 0
10 -13 3 0
-2 -15 -5 0
8 -12 4 0
3 13 12 0
11 8 15 0
7 11 -10 0
10 14 15 0
10 12 -3 0
-5 -12 7 0
-3 9 -5 0
-9 2 -10 0
7 -2 3 0
8 -12 -9 0
9 -7 6 0
-5 -9 2 0
-8 15 5 0
-11 7 12 0
-15 10 -4 0
-6 2 3 0
-3 -5 -1 0
-11 -4 -5 0
15 4 -5 0
-1 -3 5 0
6 -15 2 0
3 -11 13 0
-11 4 -10 0
